21
[-1, 34, 0, 42, 0, 0, 0, 0, 89, 0, 0, 71, 0, 70, 91, 0, 0, 52, 9, 55, 0, 
34, -1, 62, 0, 0, 40, 0, 2, 68, 0, 0, 0, 56, 0, 0, 0, 31, 74, 0, 0, 0, 
0, 62, -1, 75, 70, 0, 0, 0, 0, 84, 63, 60, 50, 43, 0, 0, 31, 0, 9, 2, 0, 
42, 0, 75, -1, 47, 59, 0, 0, 46, 0, 29, 0, 0, 0, 0, 0, 0, 49, 54, 0, 86, 
0, 0, 70, 47, -1, 52, 0, 0, 0, 97, 18, 81, 79, 0, 48, 0, 0, 91, 39, 83, 0, 
0, 40, 0, 59, 52, -1, 0, 20, 0, 31, 0, 12, 0, 5, 0, 42, 0, 23, 0, 10, 71, 
0, 0, 0, 0, 0, 0, -1, 0, 83, 46, 0, 93, 0, 0, 77, 64, 30, 0, 8, 100, 68, 
0, 2, 0, 0, 0, 20, 0, -1, 59, 0, 0, 10, 46, 0, 10, 0, 0, 0, 32, 1, 47, 
89, 68, 0, 46, 0, 0, 83, 59, -1, 0, 0, 50, 0, 0, 0, 75, 19, 91, 0, 0, 0, 
0, 0, 84, 0, 97, 31, 46, 0, 0, -1, 32, 0, 0, 75, 23, 0, 0, 43, 1, 0, 23, 
0, 0, 63, 29, 18, 0, 0, 0, 0, 32, -1, 49, 56, 100, 97, 0, 0, 64, 83, 62, 0, 
71, 0, 60, 0, 81, 12, 93, 10, 50, 0, 49, -1, 0, 24, 0, 6, 65, 92, 0, 58, 65, 
0, 56, 50, 0, 79, 0, 0, 46, 0, 0, 56, 0, -1, 42, 54, 0, 48, 0, 0, 8, 17, 
70, 0, 43, 0, 0, 5, 0, 0, 0, 75, 100, 24, 42, -1, 0, 0, 0, 0, 0, 88, 94, 
91, 0, 0, 0, 48, 0, 77, 10, 0, 23, 97, 0, 54, 0, -1, 87, 0, 31, 0, 54, 0, 
0, 0, 0, 0, 0, 42, 64, 0, 75, 0, 0, 6, 0, 0, 87, -1, 50, 0, 0, 0, 90, 
0, 31, 31, 0, 0, 0, 30, 0, 19, 0, 0, 65, 48, 0, 0, 50, -1, 66, 0, 0, 8, 
52, 74, 0, 49, 91, 23, 0, 0, 91, 43, 64, 92, 0, 0, 31, 0, 66, -1, 0, 0, 0, 
9, 0, 9, 54, 39, 0, 8, 32, 0, 1, 83, 0, 0, 0, 0, 0, 0, 0, -1, 87, 54, 
55, 0, 2, 0, 83, 10, 100, 1, 0, 0, 62, 58, 8, 88, 54, 0, 0, 0, 87, -1, 1, 
0, 0, 0, 86, 0, 71, 68, 47, 0, 23, 0, 65, 17, 94, 0, 90, 8, 0, 54, 1, -1]